CPXPARAM_Read_DataCheck                          1
Found incumbent of value 0.000000 after 0.00 sec. (0.03 ticks)
Tried aggregator 1 time.
MIP Presolve modified 1 coefficients.
Reduced MIP has 131 rows, 1010 columns, and 5040 nonzeros.
Reduced MIP has 1010 binaries, 0 generals, 0 SOSs, and 0 indicators.
Presolve time = 0.00 sec. (2.04 ticks)
Probing time = 0.01 sec. (1.64 ticks)
Tried aggregator 1 time.
Reduced MIP has 131 rows, 1010 columns, and 5040 nonzeros.
Reduced MIP has 1010 binaries, 0 generals, 0 SOSs, and 0 indicators.
Presolve time = 0.00 sec. (2.40 ticks)
Probing time = 0.00 sec. (1.64 ticks)
Clique table members: 1495.
MIP emphasis: balance optimality and feasibility.
MIP search method: dynamic search.
Parallel mode: deterministic, using up to 4 threads.
Root relaxation solution time = 0.00 sec. (2.63 ticks)

        Nodes                                         Cuts/
   Node  Left     Objective  IInf  Best Integer    Best Bound    ItCnt     Gap

*     0+    0                            0.0000     6276.0000              --- 
      0     0     1570.4202    10        0.0000     1570.4202      214     --- 
      0     0     1432.3592   144        0.0000     Cuts: 138      407     --- 
*     0+    0                         1376.0000     1432.3592             4.10%
      0     0     1405.8092   210     1376.0000      Cuts: 68      510    2.17%
      0     0     1396.2416   209     1376.0000      Cuts: 42      592    1.47%
*     0+    0                         1383.0000     1396.2416             0.96%
      0     0     1394.9786   182     1383.0000      Cuts: 25      629    0.87%
*     0+    0                         1391.0000     1394.9786             0.29%
      0     0        cutoff           1391.0000     1391.0000      658    0.00%
Elapsed time = 0.17 sec. (106.25 ticks, tree = 0.01 MB, solutions = 4)

Clique cuts applied:  155
Cover cuts applied:  23
Flow cuts applied:  2
Mixed integer rounding cuts applied:  9
Zero-half cuts applied:  7

Root node processing (before b&c):
  Real time             =    0.17 sec. (106.33 ticks)
Parallel b&c, 4 threads:
  Real time             =    0.00 sec. (0.00 ticks)
  Sync time (average)   =    0.00 sec.
  Wait time (average)   =    0.00 sec.
                          ------------
Total (root+branch&cut) =    0.17 sec. (106.33 ticks)
